CPXPARAM_Emphasis_MIP#P8#1#CPXPARAM_MIP_Strategy_NodeSelect#P39#2#4.114520#0.999319
CPXPARAM_Emphasis_MIP#P8#2#CPXPARAM_MIP_Strategy_NodeSelect#P39#2#4.117325#1.000000
CPXPARAM_Emphasis_MIP#P8#4#CPXPARAM_MIP_Strategy_NodeSelect#P39#2#2.759758#0.670279
CPXPARAM_Emphasis_MIP#P8#5#CPXPARAM_MIP_Strategy_NodeSelect#P39#2#2.752684#0.668561
